<number of tasks>
50

<cycle time>
1000

<order strength>
0.195


<task times>
1 144
2 204
3 100
4 176
5 61
6 165
7 107
8 159
9 161
10 47
11 25
12 134
13 34
14 107
15 52
16 51
17 92
18 88
19 75
20 95
21 107
22 66
23 115
24 210
25 106
26 153
27 45
28 51
29 60
30 197
31 201
32 218
33 204
34 182
35 158
36 94
37 55
38 253
39 214
40 24
41 87
42 36
43 45
44 122
45 86
46 93
47 25
48 34
49 249
50 164

<precedence relations>
1,40
2,7
2,10
2,40
3,6
3,11
3,12
4,6
4,8
4,13
5,9
5,10
6,40
7,16
8,14
8,35
9,15
10,18
11,17
11,19
11,49
12,49
13,38
14,23
15,24
16,25
17,21
17,27
17,42
18,22
19,20
19,26
19,38
20,40
21,28
22,29
23,30
24,31
25,31
26,32
27,33
27,34
28,37
29,36
30,38
32,37
33,39
34,35
35,40
36,41
38,42
39,43
40,44
40,45
40,46
40,47
41,49
42,50
43,48

<end>
